/* Cplex Data generated on 2017-12-15 */

k = 12;

b = 6;

AtomicConstraints = {
	 <1, 2>,
	 <1, 4>,
	 <3, 2>,
	 <3, 4>,
	 <3, 6>,
	 <5, 2>,
	 <5, 4>,
	 <5, 6>,
	 }; 

SoftAtomicConstraints = {
	 <3, 1>,
	 <4, 2>,
	 <5, 3>,
	 <6, 4>,
	 <12, 7>,
	 <11, 8>,
	 <7, 9>,
	 <8, 10>,
	 <9, 11>,
	 }; 

DisjunctiveConstraints = {
	 <3, 5, 3, 1>,
	 <4, 6, 4, 2>,
	 <8, 11, 8, 10>,
	 <11, 9, 11, 8>,
	 <9, 7, 9, 11>,
	 <7, 12, 7, 9>,
	 }; 

DirectSuccessors = {
	 }; 

